peakDumbCharging = 22200; 
Machine = anon_enum(16); 
machineSpeed = [3700,3700,3700,3700,3700,3700,3700,3700,3700,3700,3700,3700,3700,3700,3700,3700]; 
machineLoad = [3700,3700,3700,3700,3700,3700,3700,3700,3700,3700,3700,3700,3700,3700,3700,3700]; 
Car = anon_enum(25); 
demandCar = [6280,880,2440,4760,15440,2040,14920,6040,12640,9080,4640,14200,10040,10320,13520,6640,35720,13560,10760,15440,400,4280,13320,6880,6760]; 
arrivalCar = [73,72,70,69,68,68,66,65,65,62,61,60,60,59,57,55,55,53,51,51,45,43,42,38,33]; 
departureCar = [76,73,71,72,74,70,72,68,71,66,64,66,64,63,64,62,68,58,55,56,46,45,51,42,36]; 
